50 50
   1   45   -1   -1   -1   -1   -1   -1   -1   -1   -1   -1   -1   21   -1   -1   26   -1   -1   -1   -1   -1   -1   33   -1   -1   -1   -1   -1   -1   -1   32   -1   10   -1   -1   45   -1   -1   -1   -1   -1   -1   20   -1   -1   -1   13   -1   27 
   0    1   -1   -1   -1   -1   -1   -1   -1   -1   45   -1   -1   41   48   -1   -1   -1   -1   -1   -1   -1   -1   19   -1   32   22   -1   -1   -1   40   40   -1   21   -1   25   14   -1    2   -1   -1   -1   -1   -1   25   -1   -1   -1   -1   -1 
   0    0    1   14   -1   -1   -1   46    8   23   -1   -1   24   -1   38   46   -1   -1   -1   -1   -1   -1   36   -1   -1   -1   -1   -1   -1   14   -1   -1   -1   -1   -1   -1   -1    3   -1   -1    2   40   27   -1   -1   -1   -1   -1   -1   14 
   0    0    0    1   -1   42   27   -1   46   -1   16   -1   -1   29   -1   -1   -1   -1   -1   -1   44   -1   -1   26   -1   35   -1   -1   -1   -1   -1   39   -1   -1   -1   -1   -1   -1   -1   -1   -1   -1   -1   -1   -1   -1   -1   -1   -1   -1 
   0    0    0    0    1   -1   -1   -1   -1   -1   -1   -1   19   -1   -1   -1    3   48   -1   31   -1   -1   -1   -1   24   -1   -1   -1   -1   -1   -1   -1   -1   -1   -1   -1   33   -1   38   20    7   -1   -1   39   -1   43   -1   -1   48   21 
   0    0    0    0    0    1   48   -1   -1   18   -1    7   46   -1   -1   -1   -1   -1   -1   -1   -1   -1   -1   -1   44   23   -1   -1   42   -1   40   47   -1   -1   24   20   -1   -1   -1   -1   -1   -1   -1   -1   -1    9   12   -1    6   -1 
   0    0    0    0    0    0    1   -1   -1   -1   -1   -1   -1   27   -1   15   -1   -1   14   -1   -1   13   17   -1   -1   -1   -1   -1   20   -1    1   -1   -1   -1   31   -1   -1   -1   -1   -1    6   -1   -1   -1   -1   49   -1   44   -1   -1 
   0    0    0    0    0    0    0    1   -1   -1   -1   -1   34   -1   -1   -1   -1   -1   -1   45   -1   -1   -1   -1   18   -1   -1   -1   -1   -1   46   -1   -1   -1   42   -1   -1   34   -1   -1   32   -1   14   -1   -1   -1   -1   -1   -1   30 
   0    0    0    0    0    0    0    0    1   -1   -1   -1   -1   -1   -1   -1   -1   -1   33   -1   -1   -1   -1   -1   -1   -1   15   -1   -1   -1   -1   -1   -1   -1   -1   14   -1   15   -1   33   16   -1   48   -1   44   -1   15   -1   -1   -1 
   0    0    0    0    0    0    0    0    0    1   -1   -1   -1   -1   36   -1   -1   31   -1   -1   -1   -1   -1   -1   -1    2   -1   -1   -1   -1   -1   -1   36   -1   -1    2   -1   -1   25   -1   -1   -1   -1   -1   -1   -1   -1   -1   -1   -1 
   0    0    0    0    0    0    0    0    0    0    0   -1   -1   -1   -1   -1   -1   34   -1   -1   -1   -1    8   -1   -1   38   23   -1   42   -1   -1   -1   -1   -1   -1   -1   19   29   -1   -1   -1   -1   29   -1   -1   -1   -1   -1   -1   -1 
   0    0    0    0    0    0    0    0    0    0    0    0   39   -1   -1   32   -1   17   -1   -1   -1   -1   -1   -1   11    0   -1   -1   45   -1   -1   -1    1   -1   -1   23   -1   36   -1   -1   -1   -1   -1   -1   -1   -1   -1   -1   -1   -1 
   0    0    0    0    0    0    0    0    0    0    0    0    0   -1   -1   -1   -1   -1    7   -1   -1   -1   21   -1   48   -1   -1   -1   -1   -1   -1   34   48   -1   -1   39   -1   21   -1   -1   -1   21   -1   -1   -1   26   -1   -1   -1   -1 
   0    0    0    0    0    0    0    0    0    0    0    0    0    0   -1   -1   -1   -1   -1   32   21   -1   -1   43   16   49   32   -1   -1   -1   -1   -1   -1   -1   -1   -1   -1   -1   -1   -1   -1   -1   -1   -1   -1   -1   -1   -1   -1   -1 
   0    0    0    0    0    0    0    0    0    0    0    0    0    0    0   -1   -1   25   -1   -1   47   -1   -1   41   -1   -1   -1   -1   -1   -1   -1   -1   -1   -1   -1   -1   -1   -1   -1   25   -1   -1   -1   -1   -1   -1   -1   -1   30   -1 
   0    0    0    0    0    0    0    0    0    0    0    0    0    0    0    0   -1   16   -1   -1   -1   -1   -1   -1   -1   -1   22   -1   -1   -1   -1   -1   -1   -1   -1   -1   -1   -1   -1   -1   -1   -1   -1   -1   -1   -1   -1   -1   -1   -1 
   0    0    0    0    0    0    0    0    0    0    0    0    0    0    0    0    0   15   -1   -1   32   -1   -1   -1   42   -1   -1   -1   -1   -1   -1   41   -1   -1   -1   -1   -1   -1   -1   -1   -1   27   14   -1    0   -1   -1   -1   -1   -1 
   0    0    0    0    0    0    0    0    0    0    0    0    0    0    0    0    0    0   -1   -1   -1   -1   -1   -1   -1   -1   -1   -1   -1   -1   49   -1   -1   -1   -1   -1   -1   -1   -1   -1   -1   -1   -1   -1   -1   -1   -1   -1   -1   -1 
   0    0    0    0    0    0    0    0    0    0    0    0    0    0    0    0    0    0    0   -1   32   -1   -1   32   34   -1   -1   -1   -1   -1   -1   36   -1   -1   45   -1   -1   -1   17   -1   -1   -1   -1   -1   -1   -1   -1   36   -1   13 
   0    0    0    0    0    0    0    0    0    0    0    0    0    0    0    0    0    0    0    0   -1   37   -1   -1   -1   -1   -1   -1   -1   -1   -1   -1   -1   -1   -1   16   -1   -1   -1   33    7   -1   -1   -1   -1   -1   27   -1   -1   -1 
   0    0    0    0    0    0    0    0    0    0    0    0    0    0    0    0    0    0    0    0    0   -1   -1   -1   -1   -1   43   -1   -1   -1   -1   -1   -1   -1   40    2   -1   -1   -1   -1   -1   34   -1   -1   -1   -1   -1   -1   -1   13 
   0    0    0    0    0    0    0    0    0    0    0    0    0    0    0    0    0    0    0    0    0    0   -1   -1   -1   38   -1   -1    4   40   -1   -1   -1   -1   -1   -1   -1   -1   -1   -1   -1   -1   -1   48   -1   -1   -1   -1   -1   -1 
   0    0    0    0    0    0    0    0    0    0    0    0    0    0    0    0    0    0    0    0    0    0    0   -1   -1   23   -1   -1   44   -1   -1   -1   -1    5   -1   38   -1   -1   -1   37   -1   -1   -1   48   -1   35   -1   -1   26   -1 
   0    0    0    0    0    0    0    0    0    0    0    0    0    0    0    0    0    0    0    0    0    0    0    0   -1    8   -1    7   -1   -1   -1   -1   -1   -1   -1   -1   -1   -1   -1   -1   -1   42   44   -1   -1   -1   -1   -1   -1   -1 
   0    0    0    0    0    0    0    0    0    0    0    0    0    0    0    0    0    0    0    0    0    0    0    0    0   -1   -1   -1   -1   32   -1   24   -1   -1   -1    4   -1   -1   -1   -1   -1   21   36   -1   -1   37   -1   -1   -1   -1 
   0    0    0    0    0    0    0    0    0    0    0    0    0    0    0    0    0    0    0    0    0    0    0    0    0    0   -1   -1   45   41   27   -1   -1   -1   -1   -1   -1   -1   -1   -1   -1   -1   -1   -1   -1   -1   -1   -1    5   -1 
   0    0    0    0    0    0    0    0    0    0    0    0    0    0    0    0    0    0    0    0    0    0    0    0    0    0    0   -1   -1   39   -1   -1   -1   -1   -1    3   -1   -1   -1   -1   -1   -1   -1   -1   -1   -1   -1   -1   -1   -1 
   0    0    0    0    0    0    0    0    0    0    0    0    0    0    0    0    0    0    0    0    0    0    0    0    0    0    0    0   10   -1   -1   -1   -1   -1   -1   -1   -1   -1    1   -1   20   -1   36   -1   -1   -1   -1   -1   -1   -1 
   0    0    0    0    0    0    0    0    0    0    0    0    0    0    0    0    0    0    0    0    0    0    0    0    0    0    0    0    0   -1   -1   -1   -1    0   -1   -1   -1   11   -1   -1   44   -1    2   19   -1   -1   -1   -1   -1   -1 
   0    0    0    0    0    0    0    0    0    0    0    0    0    0    0    0    0    0    0    0    0    0    0    0    0    0    0    0    0    0   -1   -1   -1   -1   -1   -1   -1   39    7   34   -1   -1   26   -1   -1   -1   -1   -1   40   -1 
   0    0    0    0    0    0    0    0    0    0    0    0    0    0    0    0    0    0    0    0    0    0    0    0    0    0    0    0    0    0    0   -1    9   -1   -1   -1   -1   -1   -1   -1   -1   -1   29   11   -1   -1   -1   -1   -1   -1 
   0    0    0    0    0    0    0    0    0    0    0    0    0    0    0    0    0    0    0    0    0    0    0    0    0    0    0    0    0    0    0    0   -1   49    2   -1   -1   47   31    5   -1   -1   -1   29   -1   -1   -1   -1   -1   -1 
   0    0    0    0    0    0    0    0    0    0    0    0    0    0    0    0    0    0    0    0    0    0    0    0    0    0    0    0    0    0    0    0    0   -1   -1   -1   -1   -1   12   -1   -1   31   -1   -1   -1   -1   -1   -1   10   -1 
   0    0    0    0    0    0    0    0    0    0    0    0    0    0    0    0    0    0    0    0    0    0    0    0    0    0    0    0    0    0    0    0    0    0   -1   -1    3   -1   -1   -1   12   -1   -1   -1   -1   21   -1   -1   -1   -1 
   0    0    0    0    0    0    0    0    0    0    0    0    0    0    0    0    0    0    0    0    0    0    0    0    0    0    0    0    0    0    0    0    0    0    0   -1   -1   48   -1   -1    5   -1   -1    3   -1   -1   -1   -1   41   -1 
   0    0    0    0    0    0    0    0    0    0    0    0    0    0    0    0    0    0    0    0    0    0    0    0    0    0    0    0    0    0    0    0    0    0    0    0   -1   -1    3   -1   -1   -1   -1   21   11   -1   -1   -1   32   -1 
   0    0    0    0    0    0    0    0    0    0    0    0    0    0    0    0    0    0    0    0    0    0    0    0    0    0    0    0    0    0    0    0    0    0    0    0    0   -1   -1   -1   14   -1   -1   22   -1   -1   -1   -1   -1   -1 
   0    0    0    0    0    0    0    0    0    0    0    0    0    0    0    0    0    0    0    0    0    0    0    0    0    0    0    0    0    0    0    0    0    0    0    0    0    0   -1   -1   -1   -1   -1   -1   -1   15   -1   -1   -1   -1 
   0    0    0    0    0    0    0    0    0    0    0    0    0    0    0    0    0    0    0    0    0    0    0    0    0    0    0    0    0    0    0    0    0    0    0    0    0    0    0   -1   -1   -1   -1   -1   -1   -1   -1   -1   -1   -1 
   0    0    0    0    0    0    0    0    0    0    0    0    0    0    0    0    0    0    0    0    0    0    0    0    0    0    0    0    0    0    0    0    0    0    0    0    0    0    0    0   -1   -1   -1    4   -1   27   -1   -1   -1   -1 
   0    0    0    0    0    0    0    0    0    0    0    0    0    0    0    0    0    0    0    0    0    0    0    0    0    0    0    0    0    0    0    0    0    0    0    0    0    0    0    0    0   -1   -1   31   -1   -1   -1   -1   -1   -1 
   0    0    0    0    0    0    0    0    0    0    0    0    0    0    0    0    0    0    0    0    0    0    0    0    0    0    0    0    0    0    0    0    0    0    0    0    0    0    0    0    0    0   -1   -1   11   -1   -1   11   40   -1 
   0    0    0    0    0    0    0    0    0    0    0    0    0    0    0    0    0    0    0    0    0    0    0    0    0    0    0    0    0    0    0    0    0    0    0    0    0    0    0    0    0    0    0   -1   -1   -1   44   -1   -1   -1 
   0    0    0    0    0    0    0    0    0    0    0    0    0    0    0    0    0    0    0    0    0    0    0    0    0    0    0    0    0    0    0    0    0    0    0    0    0    0    0    0    0    0    0    0   -1   -1   -1   -1   -1   -1 
   0    0    0    0    0    0    0    0    0    0    0    0    0    0    0    0    0    0    0    0    0    0    0    0    0    0    0    0    0    0    0    0    0    0    0    0    0    0    0    0    0    0    0    0    0   34   -1   -1   -1   -1 
   0    0    0    0    0    0    0    0    0    0    0    0    0    0    0    0    0    0    0    0    0    0    0    0    0    0    0    0    0    0    0    0    0    0    0    0    0    0    0    0    0    0    0    0    0    0   -1   -1   -1   -1 
   0    0    0    0    0    0    0    0    0    0    0    0    0    0    0    0    0    0    0    0    0    0    0    0    0    0    0    0    0    0    0    0    0    0    0    0    0    0    0    0    0    0    0    0    0    0    0   34   -1   46 
   0    0    0    0    0    0    0    0    0    0    0    0    0    0    0    0    0    0    0    0    0    0    0    0    0    0    0    0    0    0    0    0    0    0    0    0    0    0    0    0    0    0    0    0    0    0    0    0   -1   -1 
   0    0    0    0    0    0    0    0    0    0    0    0    0    0    0    0    0    0    0    0    0    0    0    0    0    0    0    0    0    0    0    0    0    0    0    0    0    0    0    0    0    0    0    0    0    0    0    0    0   -1 
   0    0    0    0    0    0    0    0    0    0    0    0    0    0    0    0    0    0    0    0    0    0    0    0    0    0    0    0    0    0    0    0    0    0    0    0    0    0    0    0    0    0    0    0    0    0    0    0    0    0 
